n_potions = 66;
alchemy = [1, 1, 1, 4, 4, 4, 5, 3, 5, 4, 4, 3, 3, 1, 2, 5, 2, 5, 4, 1, 3, 3, 1, 4, 5, 2, 3, 1, 4, 4, 1, 5, 2, 3, 3, 3, 4, 1, 4, 2, 3, 5, 3, 2, 3, 1, 4, 1, 1, 2, 4, 2, 4, 3, 5, 3, 4, 3, 1, 3, 1, 1, 2, 1, 5, 5];
n_days = 12;
min_potions = 5;
max_potions = 7;
min_alchemists = 5;
max_alchemists = 35;
prereqs = [|7,1
|8,2
|8,6
|10,5
|11,5
|11,6
|12,7
|13,8
|13,11
|14,3
|17,11
|18,10
|19,8
|19,11
|20,9
|21,10
|23,17
|23,18
|24,13
|24,19
|26,13
|32,9
|33,27
|35,9
|35,17
|35,18
|37,35
|39,35
|41,9
|41,18
|44,16
|45,38
|46,37
|47,42
|48,34
|48,35
|49,30
|49,32
|50,43
|54,50
|55,38
|56,51
|57,39
|57,34
|58,28
|59,55
|61,48
|61,55
|62,31
|65,59
|];
